c Random generated cnf formula, satisfiable: true
p cnf 10 50
2 -5 -1 0
1 6 8 0
-6 -2 5 0
8 -3 9 0
4 -2 9 0
7 -10 2 0
6 -5 1 0
-10 3 8 0
-5 -8 10 0
-1 6 9 0
-4 8 -9 0
-8 1 -7 0
7 -5 9 0
3 6 -9 0
-8 2 3 0
-1 10 8 0
5 -6 -3 0
7 9 2 0
3 9 -10 0
10 -7 1 0
7 -10 -3 0
-1 4 5 0
9 -8 -1 0
-2 6 7 0
2 3 4 0
-1 10 9 0
4 6 -10 0
-4 9 5 0
-9 -4 -3 0
-8 -7 5 0
-8 -10 5 0
-9 6 8 0
-7 8 4 0
10 3 5 0
10 -1 -5 0
7 -8 -5 0
-4 10 2 0
9 -7 -10 0
-1 -5 -10 0
-2 5 6 0
-9 5 -1 0
-7 -3 6 0
-8 9 -7 0
1 9 5 0
7 3 10 0
-10 7 1 0
-7 10 3 0
3 5 6 0
-3 1 -5 0
-1 -7 5 0
